c Generated map
c Size: 10 * 10, weights in range: 1 to 10, walls: True, with ratio 0.05
c dim 3 of 6
c
p sp 100 162
c graph contains 100 nodes and 162 arcs
c
a 1 11 8
a 11 1 8
a 1 2 10
a 2 1 10
a 2 12 2
a 12 2 2
a 2 3 8
a 3 2 8
a 3 13 7
a 13 3 7
a 3 4 9
a 4 3 9
a 4 14 7
a 14 4 7
a 4 5 5
a 5 4 5
a 5 6 3
a 6 5 3
a 6 16 10
a 16 6 10
a 6 7 6
a 7 6 6
a 7 17 7
a 17 7 7
a 7 8 6
a 8 7 6
a 8 18 9
a 18 8 9
a 8 9 7
a 9 8 7
a 9 19 6
a 19 9 6
a 9 10 4
a 10 9 4
a 10 20 6
a 20 10 6
a 11 21 3
a 21 11 3
a 11 12 8
a 12 11 8
a 12 22 10
a 22 12 10
a 12 13 3
a 13 12 3
a 13 23 10
a 23 13 10
a 13 14 5
a 14 13 5
a 14 24 8
a 24 14 8
a 16 26 3
a 26 16 3
a 16 17 4
a 17 16 4
a 17 18 1
a 18 17 1
a 18 28 2
a 28 18 2
a 18 19 7
a 19 18 7
a 19 29 2
a 29 19 2
a 19 20 2
a 20 19 2
a 21 31 10
a 31 21 10
a 21 22 9
a 22 21 9
a 22 32 1
a 32 22 1
a 22 23 6
a 23 22 6
a 23 33 2
a 33 23 2
a 23 24 9
a 24 23 9
a 24 34 8
a 34 24 8
a 24 25 10
a 25 24 10
a 25 35 8
a 35 25 8
a 25 26 1
a 26 25 1
a 26 36 7
a 36 26 7
a 28 38 2
a 38 28 2
a 28 29 9
a 29 28 9
a 29 39 8
a 39 29 8
a 31 41 8
a 41 31 8
a 31 32 3
a 32 31 3
a 32 42 3
a 42 32 3
a 32 33 4
a 33 32 4
a 33 43 7
a 43 33 7
a 33 34 8
a 34 33 8
a 34 44 10
a 44 34 10
a 34 35 6
a 35 34 6
a 35 45 3
a 45 35 3
a 35 36 9
a 36 35 9
a 36 46 4
a 46 36 4
a 36 37 6
a 37 36 6
a 37 47 1
a 47 37 1
a 37 38 8
a 38 37 8
a 38 48 9
a 48 38 9
a 38 39 5
a 39 38 5
a 39 49 1
a 49 39 1
a 39 40 4
a 40 39 4
a 40 50 5
a 50 40 5
a 41 51 8
a 51 41 8
a 41 42 1
a 42 41 1
a 42 52 9
a 52 42 9
a 42 43 2
a 43 42 2
a 43 53 5
a 53 43 5
a 43 44 1
a 44 43 1
a 44 54 4
a 54 44 4
a 44 45 4
a 45 44 4
a 45 55 4
a 55 45 4
a 45 46 3
a 46 45 3
a 46 56 9
a 56 46 9
a 46 47 9
a 47 46 9
a 47 57 3
a 57 47 3
a 47 48 8
a 48 47 8
a 48 58 2
a 58 48 2
a 48 49 9
a 49 48 9
a 49 59 7
a 59 49 7
a 49 50 9
a 50 49 9
a 50 60 4
a 60 50 4
a 51 61 3
a 61 51 3
a 51 52 1
a 52 51 1
a 52 62 9
a 62 52 9
a 52 53 5
a 53 52 5
a 53 63 2
a 63 53 2
a 53 54 8
a 54 53 8
a 54 64 6
a 64 54 6
a 54 55 8
a 55 54 8
a 55 65 6
a 65 55 6
a 55 56 3
a 56 55 3
a 56 66 3
a 66 56 3
a 56 57 3
a 57 56 3
a 57 67 9
a 67 57 9
a 57 58 3
a 58 57 3
a 58 68 6
a 68 58 6
a 58 59 4
a 59 58 4
a 59 69 6
a 69 59 6
a 59 60 2
a 60 59 2
a 60 70 5
a 70 60 5
a 61 71 7
a 71 61 7
a 61 62 4
a 62 61 4
a 62 72 7
a 72 62 7
a 62 63 6
a 63 62 6
a 63 73 4
a 73 63 4
a 63 64 5
a 64 63 5
a 64 74 6
a 74 64 6
a 64 65 5
a 65 64 5
a 65 75 9
a 75 65 9
a 65 66 6
a 66 65 6
a 66 76 9
a 76 66 9
a 66 67 8
a 67 66 8
a 67 77 9
a 77 67 9
a 67 68 9
a 68 67 9
a 68 78 6
a 78 68 6
a 68 69 4
a 69 68 4
a 69 79 7
a 79 69 7
a 69 70 4
a 70 69 4
a 70 80 1
a 80 70 1
a 71 81 4
a 81 71 4
a 71 72 9
a 72 71 9
a 72 82 4
a 82 72 4
a 72 73 7
a 73 72 7
a 73 83 8
a 83 73 8
a 73 74 2
a 74 73 2
a 74 75 6
a 75 74 6
a 75 85 1
a 85 75 1
a 75 76 3
a 76 75 3
a 76 86 7
a 86 76 7
a 76 77 6
a 77 76 6
a 77 87 5
a 87 77 5
a 77 78 7
a 78 77 7
a 78 88 2
a 88 78 2
a 78 79 1
a 79 78 1
a 79 89 7
a 89 79 7
a 79 80 10
a 80 79 10
a 80 90 1
a 90 80 1
a 81 91 1
a 91 81 1
a 81 82 9
a 82 81 9
a 82 92 10
a 92 82 10
a 82 83 9
a 83 82 9
a 83 93 6
a 93 83 6
a 85 95 6
a 95 85 6
a 85 86 3
a 86 85 3
a 86 87 6
a 87 86 6
a 87 97 9
a 97 87 9
a 87 88 5
a 88 87 5
a 88 98 7
a 98 88 7
a 88 89 8
a 89 88 8
a 89 99 7
a 99 89 7
a 89 90 4
a 90 89 4
a 90 100 4
a 100 90 4
a 91 92 8
a 92 91 8
a 92 93 9
a 93 92 9
a 93 94 3
a 94 93 3
a 94 95 7
a 95 94 7
a 97 98 8
a 98 97 8
a 98 99 3
a 99 98 3
a 99 100 10
a 100 99 10
